
50
12705

784 683
192 92
717 618
943 842
933 835
616 516
732 632
468 370
630 529
206 108
784 683
700 601
380 282
481 379
835 737
542 444
1060 960
1071 972
939 839
192 92
176 76
389 289
461 362
804 705
928 827
663 563
740 640
676 574
133 35
626 527
314 214
515 417
110 9
756 656
1010 911
167 69
683 581
122 24
454 352
261 160
963 861
830 729
996 897
318 218
821 719
798 700
613 511
1018 917
723 625
385 283
